NAME : roraima
COMMENT : 14 locations in Brazil
COMMENT : Derived from IBGE datasets
TYPE : TSP
DIMENSION : 14
EDGE_WEIGHT_TYPE : EUC_2D
NODE_COORD_SECTION
1 -59.8780066289099 3.35028861911031
2 -59.635206283568294 3.88297828530181
3 -61.3127406544999 2.9859141120000396
4 -61.1473063471493 4.47525934021225
5 -60.195716148042 4.58544038754255
6 -61.13259815159719 1.80858993797667
7 -60.601880342868895 2.60922337468822
8 -60.9208991961422 2.4456617985438798
9 -61.0525646497389 2.16686070916905
10 -60.0388548249255 1.01706955782009
11 -60.434524396014794 0.940860885198041
12 -59.90604434515439 0.9471574274666811
13 -59.6948100736757 0.872674507186562
14 -61.419670106999895 3.64987367100008
EOF